CARROOOOOOOOOOCAAAAAAAAAAAAAA
Tried aggregator 1 time.
MIP Presolve eliminated 0 rows and 1 columns.
Reduced MIP has 75261 rows, 100 columns, and 301044 nonzeros.
Reduced MIP has 100 binaries, 0 generals, 0 SOSs, and 0 indicators.
Probing time =    0.01 sec.
Tried aggregator 1 time.
Presolve time =    0.18 sec.
Found feasible solution after 0.20 sec.  Objective = 100.0000
Probing time =    0.00 sec.
MIP emphasis: balance optimality and feasibility.
MIP search method: dynamic search.
Parallel mode: none, using 1 thread.
Root relaxation solution time =    0.39 sec.

        Nodes                                         Cuts/
   Node  Left     Objective  IInf  Best Integer    Best Bound    ItCnt     Gap

*     0+    0                          100.0000                   1299     --- 
      0     0       24.2500    65      100.0000       24.2500     1299   75.75%
*     0+    0                           34.0000       24.2500     1299   28.68%
      0     0       25.0833    74       34.0000     Cuts: 234     1489   26.23%
      0     0       25.7075    89       34.0000     Cuts: 193     1667   24.39%
      0     0       25.9224    88       34.0000 ZeroHalf: 161     1824   23.76%
      0     0       26.1602    99       34.0000  ZeroHalf: 88     1932   23.06%
      0     0       26.2049    99       34.0000  ZeroHalf: 21     1989   22.93%
      0     0       26.3431    84       34.0000  ZeroHalf: 39     2135   22.52%
*     0+    0                           27.0000       26.3431     2135    2.43%
      0     0        cutoff             27.0000       26.3431     2135    2.43%
Elapsed real time =  18.08 sec. (tree size =  0.00 MB, solutions = 3)

Zero-half cuts applied:  28

Root node processing (before b&c):
  Real time             =   17.90
Sequential b&c:
  Real time             =    0.00
                          -------
Total (root+branch&cut) =   17.90 sec.
Nodes: 0
OBJ: 27
1 0 1 1 1 0 1 1 1 0 1 0 0 0 1 0 0 1 1 1 1 1 0 1 1 0 1 1 1 0 1 1 1 1 1 1 1 1 0 1 0 1 0 1 1 1 0 1 0 1 1 1 1 1 1 1 1 1 1 1 1 0 1 1 1 1 1 1 1 0 1 0 1 1 1 1 1 0 1 1 1 1 1 1 1 0 1 1 0 1 0 1 1 1 0 1 0 0 1 0 
